p td 22 147
3 1
3 2
4 1
4 2
5 4
5 1
5 3
6 1
6 3
6 5
6 4
7 4
7 6
7 5
8 4
8 2
8 3
8 5
9 2
9 3
9 8
9 1
9 5
10 2
10 4
10 5
10 9
10 6
10 3
10 8
11 10
11 4
11 9
11 6
11 1
11 5
12 11
12 5
12 6
12 10
12 8
12 9
13 1
13 10
13 12
13 8
13 11
13 7
13 4
14 5
14 4
14 6
14 1
14 7
14 8
14 2
14 11
14 10
14 13
14 9
15 2
15 9
15 11
15 7
15 3
15 6
15 4
15 8
16 2
16 6
16 1
16 14
16 7
16 5
16 13
16 12
16 9
17 13
17 16
17 15
17 2
17 10
17 5
17 14
17 1
17 9
17 12
18 1
18 9
18 8
18 10
18 14
18 7
18 13
18 17
18 6
18 3
18 16
19 11
19 17
19 5
19 18
19 1
19 12
19 2
19 15
19 9
19 13
19 16
20 10
20 11
20 12
20 5
20 18
20 7
20 16
20 3
20 2
20 15
20 14
20 1
20 4
21 9
21 13
21 17
21 6
21 14
21 3
21 16
21 11
21 5
21 18
21 2
21 15
21 12
22 9
22 18
22 8
22 14
22 13
22 17
22 4
22 12
22 15
22 2
22 6
22 19
